* #variable= 48 #constraint= 25
* #binary= 48 #integer= 0
* NOTE: using following variable name mapping
* x1..1 : QUAN0101
* x2..2 : QUAN0102
* x3..3 : QUAN0103
* x4..4 : QUAN0104
* x5..5 : QUAN0105
* x6..6 : QUAN0106
* x7..7 : QUAN0107
* x8..8 : QUAN0108
* x9..9 : QUAN0109
* x10..10 : QUAN0110
* x11..11 : QUAN0111
* x12..12 : QUAN0112
* x13..13 : QUAN0113
* x14..14 : QUAN0114
* x15..15 : QUAN0115
* x16..16 : QUAN0116
* x17..17 : QUAN0201
* x18..18 : QUAN0202
* x19..19 : QUAN0203
* x20..20 : QUAN0204
* x21..21 : QUAN0205
* x22..22 : QUAN0206
* x23..23 : QUAN0207
* x24..24 : QUAN0208
* x25..25 : QUAN0209
* x26..26 : QUAN0210
* x27..27 : QUAN0211
* x28..28 : QUAN0212
* x29..29 : QUAN0213
* x30..30 : QUAN0214
* x31..31 : QUAN0215
* x32..32 : QUAN0216
* x33..33 : QUAN0301
* x34..34 : QUAN0302
* x35..35 : QUAN0303
* x36..36 : QUAN0304
* x37..37 : QUAN0305
* x38..38 : QUAN0306
* x39..39 : QUAN0307
* x40..40 : QUAN0308
* x41..41 : QUAN0309
* x42..42 : QUAN0310
* x43..43 : QUAN0311
* x44..44 : QUAN0312
* x45..45 : QUAN0313
* x46..46 : QUAN0314
* x47..47 : QUAN0315
* x48..48 : QUAN0316
*   Obj. scale       : 1000
*   Obj. offset      : 0
* NOTE: new objective = (old objective - offset) * scale
min: +18700 x1 +22040 x2 +29280 x3 +28280 x4 +23580 x5 +23460 x6 +36000 x7 +39520 x8 +69240 x9 +84459 x10 +79134 x11 +71416 x12 +59976 x13 +57123 x14 +60515 x15 +60840 x16 +25300 x17 +32380 x18 +35380 x19 +33540 x20 +35270 x21 +33120 x22 +25920 x23 +25840 x24 +76200 x25 +97290 x26 +84821 x27 +75484 x28 +69258 x29 +63954 x30 +52780 x31 +51210 x32 +22000 x33 +30160 x34 +32940 x35 +36120 x36 +26200 x37 +26220 x38 +46080 x39 +48640 x40 +83880 x41 +107865 x42 +93896 x43 +88931 x44 +71298 x45 +68112 x46 +75640 x47 +74790 x48 ;
-110 x1 -116 x2 -122 x3 -129 x4 -131 x5 -138 x6 -144 x7 -152 x8 -120 x9 -141 x10 -121 x11 -113 x12 -102 x13 -99 x14 -91 x15 -90 x16 >= -450 ;
-110 x17 -116 x18 -122 x19 -129 x20 -131 x21 -138 x22 -144 x23 -152 x24 -120 x25 -141 x26 -121 x27 -113 x28 -102 x29 -99 x30 -91 x31 -90 x32 >= -700 ;
-110 x33 -116 x34 -122 x35 -129 x36 -131 x37 -138 x38 -144 x39 -152 x40 -120 x41 -141 x42 -121 x43 -113 x44 -102 x45 -99 x46 -91 x47 -90 x48 >= -800 ;
+10 x1 +14 x2 +18 x3 +23 x4 +31 x5 +30 x6 +40 x7 +50 x8 -40 x9 -59 x10 -41 x11 -27 x12 -24 x13 -19 x14 -11 x15 -8 x16 >= -45 ;
+10 x17 +14 x18 +18 x19 +23 x20 +31 x21 +30 x22 +40 x23 +50 x24 -40 x25 -59 x26 -41 x27 -27 x28 -24 x29 -19 x30 -11 x31 -8 x32 >= -70 ;
+10 x33 +14 x34 +18 x35 +23 x36 +31 x37 +30 x38 +40 x39 +50 x40 -40 x41 -59 x42 -41 x43 -27 x44 -24 x45 -19 x46 -11 x47 -8 x48 >= -80 ;
-10 x1 -14 x2 -18 x3 -23 x4 -31 x5 -30 x6 -40 x7 -50 x8 +40 x9 +59 x10 +41 x11 +27 x12 +24 x13 +19 x14 +11 x15 +8 x16 >= -45 ;
-10 x17 -14 x18 -18 x19 -23 x20 -31 x21 -30 x22 -40 x23 -50 x24 +40 x25 +59 x26 +41 x27 +27 x28 +24 x29 +19 x30 +11 x31 +8 x32 >= -70 ;
-10 x33 -14 x34 -18 x35 -23 x36 -31 x37 -30 x38 -40 x39 -50 x40 +40 x41 +59 x42 +41 x43 +27 x44 +24 x45 +19 x46 +11 x47 +8 x48 >= -80 ;
+1 x1 +1 x17 +1 x33 = 1 ;
+1 x2 +1 x18 +1 x34 = 1 ;
+1 x3 +1 x19 +1 x35 = 1 ;
+1 x4 +1 x20 +1 x36 = 1 ;
+1 x5 +1 x21 +1 x37 = 1 ;
+1 x6 +1 x22 +1 x38 = 1 ;
+1 x7 +1 x23 +1 x39 = 1 ;
+1 x8 +1 x24 +1 x40 = 1 ;
+1 x9 +1 x25 +1 x41 = 1 ;
+1 x10 +1 x26 +1 x42 = 1 ;
+1 x11 +1 x27 +1 x43 = 1 ;
+1 x12 +1 x28 +1 x44 = 1 ;
+1 x13 +1 x29 +1 x45 = 1 ;
+1 x14 +1 x30 +1 x46 = 1 ;
+1 x15 +1 x31 +1 x47 = 1 ;
+1 x16 +1 x32 +1 x48 = 1 ;
